(set-logic HORN)
(set-info :source |
    Benchmark: C_VC
    Output by Princess (http://www.philipp.ruemmer.org/princess.shtml)
|)
(set-info :status unsat)
(declare-heap Heap Addr HeapObject
 defObj
 ((HeapObject 0)) (
  (
   (O_Int (getInt Int))
   (O_UInt (getUInt Int))
   (O_Addr (getAddr Addr))
   (defObj)
  )
))
(declare-fun inv_main10 (Heap AddrRange Int Int) Bool)
(declare-fun inv_main12 (Heap AddrRange Int Int) Bool)
(declare-fun inv_main17 (Heap AddrRange Int Int Int) Bool)
(declare-fun inv_main21 (Heap AddrRange Int Int Int Int) Bool)
(declare-fun inv_main30 (Heap AddrRange Int Int Int Int) Bool)
(declare-fun inv_main31 (Heap AddrRange Int Int Int Int) Bool)
(declare-fun inv_main5 (Heap AddrRange Int Int) Bool)
(assert (forall ((var0 Int) (var1 Int) (var2 AddrRange) (var3 Int) (var4 Heap) (var5 Heap)) (or (not (and (and (= var5 emptyHeap) (and (= var4 (newBatchHeap (batchAlloc emptyHeap (O_Int var3) 100000))) (= var2 (newAddrRange (batchAlloc emptyHeap (O_Int var3) 100000))))) (= var1 1))) (inv_main5 var4 var2 var0 var1))))
(assert (forall ((var0 Int) (var1 Int) (var2 Int) (var3 Int) (var4 Int) (var5 Int) (var6 AddrRange) (var7 Heap)) (or (not (and (inv_main21 var7 var6 var5 var4 var3 var2) (and (and (and (<= 0 (+ var3 (- 1))) (and (is-O_Int (read var7 (nthAddrRange var6 var3))) (= var2 (getInt (read var7 (nthAddrRange var6 var3)))))) (= var1 1)) (= var0 (+ var3 (- 1)))))) (inv_main17 var7 var6 var5 var1 var0))))
(assert (forall ((var0 Int) (var1 Int) (var2 Int) (var3 Int) (var4 Int) (var5 AddrRange) (var6 Heap)) (or (not (and (inv_main21 var6 var5 var4 var3 var2 var1) (and (and (and (<= 0 (+ var2 (- 1))) (not (= var3 0))) (and (is-O_Int (read var6 (nthAddrRange var5 var2))) (not (= var1 (getInt (read var6 (nthAddrRange var5 var2))))))) (= var0 (+ var2 (- 1)))))) (inv_main17 var6 var5 var4 var3 var0))))
(assert (forall ((var0 Int) (var1 Int) (var2 Int) (var3 AddrRange) (var4 Heap)) (or (not (and (inv_main12 var4 var3 var2 var1) (and (and (and (<= 0 (+ var2 (- 1))) (not (= var1 0))) (and (<= 0 (+ (+ 100000 (* (- 1) var2)) (- 1))) (not (= var1 0)))) (= var0 (+ var2 (- 1)))))) (inv_main17 var4 var3 var2 var1 var0))))
(assert (forall ((var0 Int) (var1 Int) (var2 Int) (var3 Int) (var4 AddrRange) (var5 Heap)) (or (not (and (inv_main30 var5 var4 var3 var2 var1 var0) (<= 0 (+ (+ 100000 (* (- 1) var0)) (- 1))))) (inv_main31 var5 var4 var3 var2 var1 var0))))
(assert (forall ((var0 Int) (var1 Int) (var2 Int) (var3 Int) (var4 Int) (var5 AddrRange) (var6 Heap)) (or (not (and (inv_main31 var6 var5 var4 var3 var2 var1) (and (and (is-O_Int (read var6 (nthAddrRange var5 var2))) (is-O_Int (read var6 (nthAddrRange var5 var1)))) (= var0 (+ var1 1))))) (inv_main30 var6 var5 var4 var3 var2 var0))))
(assert (forall ((var0 Int) (var1 Int) (var2 Int) (var3 Int) (var4 Int) (var5 Int) (var6 AddrRange) (var7 Heap)) (or (not (and (inv_main30 var7 var6 var5 var4 var3 var2) (and (and (and (<= 0 (+ (+ 100000 (* (- 1) (+ var3 1))) (- 1))) (not (<= 0 (+ (+ 100000 (* (- 1) var2)) (- 1))))) (= var1 (+ var3 1))) (= var0 (+ (+ var3 1) 1))))) (inv_main30 var7 var6 var5 var4 var1 var0))))
(assert (forall ((var0 Int) (var1 Int) (var2 Int) (var3 Int) (var4 AddrRange) (var5 Heap)) (or (not (and (inv_main12 var5 var4 var3 var2) (and (and (and (not (= var2 0)) (or (not (<= 0 (+ (+ 100000 (* (- 1) var3)) (- 1)))) (= var2 0))) (= var1 0)) (= var0 1)))) (inv_main30 var5 var4 var3 var2 var1 var0))))
(assert (forall ((var0 Int) (var1 Int) (var2 Int) (var3 Int) (var4 AddrRange) (var5 Heap)) (or (not (and (inv_main17 var5 var4 var3 var2 var1) (and (is-O_Int (read var5 (nthAddrRange var4 var3))) (= var0 (getInt (read var5 (nthAddrRange var4 var3))))))) (inv_main21 var5 var4 var3 var2 var1 var0))))
(assert (forall ((var0 Int) (var1 Int) (var2 Int) (var3 AddrRange) (var4 Heap)) (or (not (and (inv_main5 var4 var3 var2 var1) (= var0 0))) (inv_main10 var4 var3 var0 var1))))
(assert (forall ((var0 Int) (var1 Int) (var2 AddrRange) (var3 Int) (var4 Heap) (var5 Int) (var6 Int) (var7 Int) (var8 AddrRange) (var9 Heap)) (or (not (and (inv_main10 var9 var8 var7 var6) (and (and (<= 0 (+ (+ 100000 (* (- 1) (+ var5 1))) (- 1))) (and (and (is-O_Int (read var9 (nthAddrRange var8 var7))) (is-O_Int (read var9 (nthAddrRange var8 var7)))) (and (and (and (= var4 (write var9 (nthAddrRange var8 var7) (O_Int var3))) (= var2 var8)) (= var5 var7)) (= var1 var6)))) (= var0 (+ var5 1))))) (inv_main10 var4 var2 var0 var1))))
(assert (forall ((var0 Int) (var1 Int) (var2 Int) (var3 Int) (var4 Int) (var5 Int) (var6 AddrRange) (var7 Heap)) (or (not (and (inv_main21 var7 var6 var5 var4 var3 var2) (and (and (and (not (<= 0 (+ var3 (- 1)))) (and (is-O_Int (read var7 (nthAddrRange var6 var3))) (= var2 (getInt (read var7 (nthAddrRange var6 var3)))))) (= var1 (+ var5 1))) (= var0 1)))) (inv_main12 var7 var6 var1 var0))))
(assert (forall ((var0 Int) (var1 Int) (var2 Int) (var3 Int) (var4 Int) (var5 AddrRange) (var6 Heap)) (or (not (and (inv_main21 var6 var5 var4 var3 var2 var1) (and (and (or (not (<= 0 (+ var2 (- 1)))) (= var3 0)) (and (is-O_Int (read var6 (nthAddrRange var5 var2))) (not (= var1 (getInt (read var6 (nthAddrRange var5 var2))))))) (= var0 (+ var4 1))))) (inv_main12 var6 var5 var0 var3))))
(assert (forall ((var0 Int) (var1 Int) (var2 Int) (var3 AddrRange) (var4 Heap)) (or (not (and (inv_main12 var4 var3 var2 var1) (and (and (or (not (<= 0 (+ var2 (- 1)))) (= var1 0)) (and (<= 0 (+ (+ 100000 (* (- 1) var2)) (- 1))) (not (= var1 0)))) (= var0 (+ var2 1))))) (inv_main12 var4 var3 var0 var1))))
(assert (forall ((var0 Int) (var1 Int) (var2 AddrRange) (var3 Int) (var4 Heap) (var5 Int) (var6 Int) (var7 Int) (var8 AddrRange) (var9 Heap)) (or (not (and (inv_main10 var9 var8 var7 var6) (and (and (not (<= 0 (+ (+ 100000 (* (- 1) (+ var5 1))) (- 1)))) (and (and (is-O_Int (read var9 (nthAddrRange var8 var7))) (is-O_Int (read var9 (nthAddrRange var8 var7)))) (and (and (and (= var4 (write var9 (nthAddrRange var8 var7) (O_Int var3))) (= var2 var8)) (= var5 var7)) (= var1 var6)))) (= var0 1)))) (inv_main12 var4 var2 var0 var1))))
(assert (forall ((var0 Int) (var1 Int) (var2 AddrRange) (var3 Heap)) (not (and (inv_main10 var3 var2 var1 var0) (not (is-O_Int (read var3 (nthAddrRange var2 var1))))))))
(assert (forall ((var0 Int) (var1 Int) (var2 AddrRange) (var3 Heap)) (not (and (inv_main10 var3 var2 var1 var0) (and (is-O_Int (read var3 (nthAddrRange var2 var1))) (not (within var2 (nthAddrRange var2 var1))))))))
(assert (forall ((var0 Int) (var1 Int) (var2 AddrRange) (var3 Heap)) (not (and (inv_main10 var3 var2 var1 var0) (and (is-O_Int (read var3 (nthAddrRange var2 var1))) (not (is-O_Int (read var3 (nthAddrRange var2 var1)))))))))
(assert (forall ((var0 Int) (var1 Int) (var2 Int) (var3 AddrRange) (var4 Heap)) (not (and (inv_main17 var4 var3 var2 var1 var0) (not (is-O_Int (read var4 (nthAddrRange var3 var2))))))))
(assert (forall ((var0 Int) (var1 Int) (var2 Int) (var3 AddrRange) (var4 Heap)) (not (and (inv_main17 var4 var3 var2 var1 var0) (and (is-O_Int (read var4 (nthAddrRange var3 var2))) (not (within var3 (nthAddrRange var3 var2))))))))
(assert (forall ((var0 Int) (var1 Int) (var2 Int) (var3 Int) (var4 AddrRange) (var5 Heap)) (not (and (inv_main21 var5 var4 var3 var2 var1 var0) (not (is-O_Int (read var5 (nthAddrRange var4 var1))))))))
(assert (forall ((var0 Int) (var1 Int) (var2 Int) (var3 Int) (var4 AddrRange) (var5 Heap)) (not (and (inv_main21 var5 var4 var3 var2 var1 var0) (and (is-O_Int (read var5 (nthAddrRange var4 var1))) (not (within var4 (nthAddrRange var4 var1))))))))
(assert (forall ((var0 Int) (var1 Int) (var2 Int) (var3 Int) (var4 AddrRange) (var5 Heap)) (not (and (inv_main31 var5 var4 var3 var2 var1 var0) (not (is-O_Int (read var5 (nthAddrRange var4 var1))))))))
(assert (forall ((var0 Int) (var1 Int) (var2 Int) (var3 Int) (var4 AddrRange) (var5 Heap)) (not (and (inv_main31 var5 var4 var3 var2 var1 var0) (not (within var4 (nthAddrRange var4 var1)))))))
(assert (forall ((var0 Int) (var1 Int) (var2 Int) (var3 Int) (var4 AddrRange) (var5 Heap)) (not (and (inv_main31 var5 var4 var3 var2 var1 var0) (not (is-O_Int (read var5 (nthAddrRange var4 var0))))))))
(assert (forall ((var0 Int) (var1 Int) (var2 Int) (var3 Int) (var4 AddrRange) (var5 Heap)) (not (and (inv_main31 var5 var4 var3 var2 var1 var0) (not (within var4 (nthAddrRange var4 var0)))))))
(assert (forall ((var0 Int) (var1 Int) (var2 Int) (var3 Int) (var4 AddrRange) (var5 Heap)) (not (and (inv_main31 var5 var4 var3 var2 var1 var0) (not (is-O_Int (read var5 (nthAddrRange var4 var1))))))))
(assert (forall ((var0 Int) (var1 Int) (var2 Int) (var3 Int) (var4 AddrRange) (var5 Heap)) (not (and (inv_main31 var5 var4 var3 var2 var1 var0) (and (is-O_Int (read var5 (nthAddrRange var4 var1))) (not (within var4 (nthAddrRange var4 var1))))))))
(assert (forall ((var0 Int) (var1 Int) (var2 Int) (var3 Int) (var4 AddrRange) (var5 Heap)) (not (and (inv_main31 var5 var4 var3 var2 var1 var0) (and (is-O_Int (read var5 (nthAddrRange var4 var1))) (not (is-O_Int (read var5 (nthAddrRange var4 var0)))))))))
(assert (forall ((var0 Int) (var1 Int) (var2 Int) (var3 Int) (var4 AddrRange) (var5 Heap)) (not (and (inv_main31 var5 var4 var3 var2 var1 var0) (and (and (is-O_Int (read var5 (nthAddrRange var4 var1))) (is-O_Int (read var5 (nthAddrRange var4 var0)))) (not (within var4 (nthAddrRange var4 var0))))))))
(assert (forall ((var0 Int) (var1 Int) (var2 Int) (var3 Int) (var4 AddrRange) (var5 Heap)) (not (and (inv_main31 var5 var4 var3 var2 var1 var0) (and (and (is-O_Int (read var5 (nthAddrRange var4 var1))) (is-O_Int (read var5 (nthAddrRange var4 var0)))) (= (getInt (read var5 (nthAddrRange var4 var1))) (getInt (read var5 (nthAddrRange var4 var0)))))))))
(check-sat)
